100
128
20
4
2
30
30
18
11
17
4
62
2
14
1
37
7
10
4
4
13
4
33
29
11
30
18
17
32
3
4
20
2
1
3
6
12
4
7
26
1
3
10
19
26
17
12
16
15
12
4
5
37
42
37
8
16
2
13
3
63
9
8
3
1
51
38
54
43
47
6
2
44
44
48
45
51
25
52
23
49
4
55
23
55
2
54
1
36
59
1
60
19
56
8
38
33
60
40
64
64
12